19
1 0 10
2 0 15
2 1 6
3 0 2
3 1 2
3 2 13
4 0 13
4 1 13
4 2 9
4 3 10
5 0 12
5 1 13
5 2 6
5 3 5
5 4 12
6 0 3
6 1 13
6 2 2
6 3 11
6 4 1
6 5 4
7 0 3
7 1 1
7 2 6
7 3 7
7 4 4
7 5 1
7 6 15
8 0 11
8 1 9
8 2 6
8 3 6
8 4 3
8 5 1
8 6 7
8 7 10
9 0 13
9 1 9
9 2 3
9 3 3
9 4 7
9 5 7
9 6 15
9 7 6
9 8 11
10 0 6
10 1 1
10 2 6
10 3 9
10 4 5
10 5 7
10 6 5
10 7 2
10 8 2
10 9 8
11 0 1
11 1 15
11 2 13
11 3 7
11 4 15
11 5 6
11 6 8
11 7 14
11 8 7
11 9 8
11 10 10
12 0 15
12 1 6
12 2 8
12 3 3
12 4 2
12 5 3
12 6 12
12 7 8
12 8 2
12 9 13
12 10 12
12 11 9
13 0 11
13 1 10
13 2 15
13 3 13
13 4 3
13 5 13
13 6 7
13 7 2
13 8 6
13 9 7
13 10 4
13 11 11
13 12 4
14 0 9
14 1 7
14 2 7
14 3 10
14 4 15
14 5 6
14 6 10
14 7 9
14 8 3
14 9 7
14 10 10
14 11 4
14 12 11
14 13 13
15 0 15
15 1 4
15 2 11
15 3 1
15 4 14
15 5 15
15 6 15
15 7 11
15 8 1
15 9 11
15 10 3
15 11 2
15 12 8
15 13 11
15 14 5
16 0 7
16 1 11
16 2 3
16 3 4
16 4 5
16 5 14
16 6 10
16 7 5
16 8 4
16 9 13
16 10 10
16 11 8
16 12 2
16 13 12
16 14 13
16 15 15
17 0 15
17 1 7
17 2 12
17 3 11
17 4 3
17 5 3
17 6 7
17 7 13
17 8 1
17 9 4
17 10 2
17 11 14
17 12 13
17 13 1
17 14 8
17 15 1
17 16 1
18 0 2
18 1 7
18 2 4
18 3 6
18 4 3
18 5 15
18 6 11
18 7 15
18 8 1
18 9 13
18 10 6
18 11 3
18 12 14
18 13 2
18 14 7
18 15 5
18 16 14
18 17 15
